Cu
   1.0
     6.9819183585274596    0.0000000000000000    0.0000000000000000
     0.0000000000000000    6.9819183585274596    0.0000000000000000
     0.0000000000000000    0.0000000000000000    6.9819183585274596
  32
Direct
  0.0014322711161162  0.0000000000000000  0.0000000000000000
  0.4999999999999999  0.0000000000000000  0.0000000000000000
  0.0000000000000000  0.4999999999999999  0.0000000000000000
  0.4999999999999999  0.4999999999999999  0.0000000000000000
  0.0000000000000000  0.0000000000000000  0.4999999999999999
  0.4999999999999999  0.0000000000000000  0.4999999999999999
  0.0000000000000000  0.4999999999999999  0.4999999999999999
  0.4999999999999999  0.4999999999999999  0.4999999999999999
  0.2500000000000000  0.2500000000000000  0.0000000000000000
  0.7500000000000000  0.2500000000000000  0.0000000000000000
  0.2500000000000000  0.7500000000000000  0.0000000000000000
  0.7500000000000000  0.7500000000000000  0.0000000000000000
  0.2500000000000000  0.2500000000000000  0.4999999999999999
  0.7500000000000000  0.2500000000000000  0.4999999999999999
  0.2500000000000000  0.7500000000000000  0.4999999999999999
  0.7500000000000000  0.7500000000000000  0.4999999999999999
  0.2500000000000000  0.0000000000000000  0.2500000000000000
  0.7500000000000000  0.0000000000000000  0.2500000000000000
  0.2500000000000000  0.4999999999999999  0.2500000000000000
  0.7500000000000000  0.4999999999999999  0.2500000000000000
  0.2500000000000000  0.0000000000000000  0.7500000000000000
  0.7500000000000000  0.0000000000000000  0.7500000000000000
  0.2500000000000000  0.4999999999999999  0.7500000000000000
  0.7500000000000000  0.4999999999999999  0.7500000000000000
  0.0000000000000000  0.2500000000000000  0.2500000000000000
  0.4999999999999999  0.2500000000000000  0.2500000000000000
  0.0000000000000000  0.7500000000000000  0.2500000000000000
  0.4999999999999999  0.7500000000000000  0.2500000000000000
  0.0000000000000000  0.2500000000000000  0.7500000000000000
  0.4999999999999999  0.2500000000000000  0.7500000000000000
  0.0000000000000000  0.7500000000000000  0.7500000000000000
  0.4999999999999999  0.7500000000000000  0.7500000000000000
