Ti
   1.0
     8.8206670999080785    0.0247654401816957    0.0000000000000000
    -4.3888858705323477    7.6513046101281406    0.0000000000000000
     0.0000000000000000    0.0000000000000000    9.2995492100000003
  36
Direct
  0.1099632068428930  0.2225899386137466  0.1242198121233062
  0.4440767280529201  0.2225899386137466  0.1250000000000000
  0.7774100613862536  0.2225899386137466  0.1250000000000000
  0.1107433947195868  0.5559232719470799  0.1250000000000000
  0.4440767280529202  0.5559232719470800  0.1250000000000000
  0.7774100613862536  0.5559232719470800  0.1250000000000000
  0.1107433947195868  0.8892566052804134  0.1250000000000000
  0.4440767280529201  0.8892566052804134  0.1250000000000000
  0.7774100613862536  0.8892566052804133  0.1250000000000000
  0.1107433947195868  0.2225899386137466  0.6250000000000000
  0.4440767280529201  0.2225899386137466  0.6250000000000000
  0.7774100613862536  0.2225899386137466  0.6250000000000000
  0.1107433947195868  0.5559232719470799  0.6250000000000000
  0.4440767280529202  0.5559232719470800  0.6250000000000000
  0.7774100613862536  0.5559232719470800  0.6250000000000000
  0.1107433947195868  0.8892566052804134  0.6250000000000000
  0.4440767280529201  0.8892566052804134  0.6250000000000000
  0.7774100613862536  0.8892566052804133  0.6250000000000000
  0.2225899386137466  0.1107433947195868  0.3749999999999999
  0.5559232719470799  0.1107433947195868  0.3749999999999999
  0.8892566052804133  0.1107433947195868  0.3749999999999999
  0.2225899386137466  0.4440767280529201  0.3749999999999999
  0.5559232719470799  0.4440767280529201  0.3749999999999999
  0.8892566052804133  0.4440767280529201  0.3749999999999999
  0.2225899386137466  0.7774100613862536  0.3749999999999999
  0.5559232719470799  0.7774100613862535  0.3749999999999999
  0.8892566052804134  0.7774100613862535  0.3749999999999999
  0.2225899386137466  0.1107433947195868  0.8750000000000000
  0.5559232719470799  0.1107433947195868  0.8750000000000000
  0.8892566052804133  0.1107433947195868  0.8750000000000000
  0.2225899386137466  0.4440767280529201  0.8750000000000000
  0.5559232719470799  0.4440767280529201  0.8750000000000000
  0.8892566052804133  0.4440767280529201  0.8750000000000000
  0.2225899386137466  0.7774100613862536  0.8750000000000000
  0.5559232719470799  0.7774100613862535  0.8750000000000000
  0.8892566052804134  0.7774100613862535  0.8750000000000000
