Al
1.02
        4.0371999            0.0000000000         0.0000000000
        0.0000000000         4.0371999            0.0000000000
        0.0000000000         0.0000000000         4.0371999
Al
4
Direct
     0.500000000         0.500000000         0.000000000
     0.500000000         0.000000000         0.500000000
     0.000000000         0.500000000         0.500000000
     0.000000000         0.000000000         0.000000000