Al
   1.0
     8.0766181946000000    0.0000000000000000    0.0000000000000000
     0.0000000000000000    8.0766181946000000    0.0000000000000000
     0.0000000000000000    0.0000000000000000   12.1149272918999991
  48
Direct
  0.2506867975962960  0.2500000000000000  0.0006867975962961
  0.7499999999999999  0.2500000000000000  0.0000000000000000
  0.2500000000000000  0.7499999999999999  0.0000000000000000
  0.7499999999999999  0.7499999999999999  0.0000000000000000
  0.2500000000000000  0.2500000000000000  0.3333333333333333
  0.7499999999999999  0.2500000000000000  0.3333333333333333
  0.2500000000000000  0.7499999999999999  0.3333333333333333
  0.7499999999999999  0.7499999999999999  0.3333333333333333
  0.2500000000000000  0.2500000000000000  0.6666666666666666
  0.7499999999999999  0.2500000000000000  0.6666666666666666
  0.2500000000000000  0.7499999999999999  0.6666666666666666
  0.7499999999999999  0.7499999999999999  0.6666666666666666
  0.2500000000000000  0.0000000000000000  0.1666666666666667
  0.7499999999999999  0.0000000000000000  0.1666666666666667
  0.2500000000000000  0.5000000000000000  0.1666666666666667
  0.7499999999999999  0.5000000000000000  0.1666666666666667
  0.2500000000000000  0.0000000000000000  0.5000000000000000
  0.7499999999999999  0.0000000000000000  0.5000000000000000
  0.2500000000000000  0.5000000000000000  0.5000000000000000
  0.7499999999999999  0.5000000000000000  0.5000000000000000
  0.2500000000000000  0.0000000000000000  0.8333333333333335
  0.7499999999999999  0.0000000000000000  0.8333333333333335
  0.2500000000000000  0.5000000000000000  0.8333333333333335
  0.7499999999999999  0.5000000000000000  0.8333333333333335
  0.0000000000000000  0.2500000000000000  0.1666666666666667
  0.5000000000000000  0.2500000000000000  0.1666666666666667
  0.0000000000000000  0.7499999999999999  0.1666666666666667
  0.5000000000000000  0.7499999999999999  0.1666666666666667
  0.0000000000000000  0.2500000000000000  0.5000000000000000
  0.5000000000000000  0.2500000000000000  0.5000000000000000
  0.0000000000000000  0.7499999999999999  0.5000000000000000
  0.5000000000000000  0.7499999999999999  0.5000000000000000
  0.0000000000000000  0.2500000000000000  0.8333333333333335
  0.5000000000000000  0.2500000000000000  0.8333333333333335
  0.0000000000000000  0.7499999999999999  0.8333333333333335
  0.5000000000000000  0.7499999999999999  0.8333333333333335
  0.0000000000000000  0.0000000000000000  0.0000000000000000
  0.5000000000000000  0.0000000000000000  0.0000000000000000
  0.0000000000000000  0.5000000000000000  0.0000000000000000
  0.5000000000000000  0.5000000000000000  0.0000000000000000
  0.0000000000000000  0.0000000000000000  0.3333333333333333
  0.5000000000000000  0.0000000000000000  0.3333333333333333
  0.0000000000000000  0.5000000000000000  0.3333333333333333
  0.5000000000000000  0.5000000000000000  0.3333333333333333
  0.0000000000000000  0.0000000000000000  0.6666666666666666
  0.5000000000000000  0.0000000000000000  0.6666666666666666
  0.0000000000000000  0.5000000000000000  0.6666666666666666
  0.5000000000000000  0.5000000000000000  0.6666666666666666
