Ti-hcp                                  
   1.00000000000000     
     2.9402223666360263    0.0082551467272319    0.0000000000000000
    -1.4629619568441159    2.5504348700427135    0.0000000000000000
     0.0000000000000000    0.0000000000000000    4.5576998609999997
   2
Direct
  0.3322301841587603  0.6677698158412397  0.2500000000000000
  0.6677698158412397  0.3322301841587603  0.7500000000000000
 
  0.00000000E+00  0.00000000E+00  0.00000000E+00
  0.00000000E+00  0.00000000E+00  0.00000000E+00
