Al
   1.0
     8.4783433763129121    0.0000000000000000    0.0000000000000000
     0.0000000000000000    8.4783433763129121    0.0000000000000000
     0.0000000000000000    0.0000000000000000    8.4783433763129121
  32
Direct
  0.2511794757013426  0.2500000000000000  0.0000000000000000
  0.7499999999999999  0.2500000000000000  0.0000000000000000
  0.2500000000000000  0.7499999999999999  0.0000000000000000
  0.7499999999999999  0.7499999999999999  0.0000000000000000
  0.2500000000000000  0.2500000000000000  0.5000000000000000
  0.7499999999999999  0.2500000000000000  0.5000000000000000
  0.2500000000000000  0.7499999999999999  0.5000000000000000
  0.7499999999999999  0.7499999999999999  0.5000000000000000
  0.2500000000000000  0.0000000000000000  0.2500000000000000
  0.7499999999999999  0.0000000000000000  0.2500000000000000
  0.2500000000000000  0.5000000000000000  0.2500000000000000
  0.7499999999999999  0.5000000000000000  0.2500000000000000
  0.2500000000000000  0.0000000000000000  0.7499999999999999
  0.7499999999999999  0.0000000000000000  0.7499999999999999
  0.2500000000000000  0.5000000000000000  0.7499999999999999
  0.7499999999999999  0.5000000000000000  0.7499999999999999
  0.0000000000000000  0.2500000000000000  0.2500000000000000
  0.5000000000000000  0.2500000000000000  0.2500000000000000
  0.0000000000000000  0.7499999999999999  0.2500000000000000
  0.5000000000000000  0.7499999999999999  0.2500000000000000
  0.0000000000000000  0.2500000000000000  0.7499999999999999
  0.5000000000000000  0.2500000000000000  0.7499999999999999
  0.0000000000000000  0.7499999999999999  0.7499999999999999
  0.5000000000000000  0.7499999999999999  0.7499999999999999
  0.0000000000000000  0.0000000000000000  0.0000000000000000
  0.5000000000000000  0.0000000000000000  0.0000000000000000
  0.0000000000000000  0.5000000000000000  0.0000000000000000
  0.5000000000000000  0.5000000000000000  0.0000000000000000
  0.0000000000000000  0.0000000000000000  0.5000000000000000
  0.5000000000000000  0.0000000000000000  0.5000000000000000
  0.0000000000000000  0.5000000000000000  0.5000000000000000
  0.5000000000000000  0.5000000000000000  0.5000000000000000
