Cu
   1.0
     7.4182882559354262    0.0000000000000000    0.0000000000000000
     0.0000000000000000    7.4182882559354262    0.0000000000000000
     0.0000000000000000    0.0000000000000000    7.4182882559354262
  32
Direct
  0.0013480198739917  0.0000000000000000  0.0000000000000000
  0.4999999999999999  0.0000000000000000  0.0000000000000000
  0.0000000000000000  0.4999999999999999  0.0000000000000000
  0.4999999999999999  0.4999999999999999  0.0000000000000000
  0.0000000000000000  0.0000000000000000  0.4999999999999999
  0.4999999999999999  0.0000000000000000  0.4999999999999999
  0.0000000000000000  0.4999999999999999  0.4999999999999999
  0.4999999999999999  0.4999999999999999  0.4999999999999999
  0.2500000000000000  0.2500000000000000  0.0000000000000000
  0.7499999999999999  0.2500000000000000  0.0000000000000000
  0.2500000000000000  0.7499999999999999  0.0000000000000000
  0.7499999999999999  0.7499999999999999  0.0000000000000000
  0.2500000000000000  0.2500000000000000  0.4999999999999999
  0.7499999999999999  0.2500000000000000  0.4999999999999999
  0.2500000000000000  0.7499999999999999  0.4999999999999999
  0.7499999999999999  0.7499999999999999  0.4999999999999999
  0.2500000000000000  0.0000000000000000  0.2500000000000000
  0.7499999999999999  0.0000000000000000  0.2500000000000000
  0.2500000000000000  0.4999999999999999  0.2500000000000000
  0.7499999999999999  0.4999999999999999  0.2500000000000000
  0.2500000000000000  0.0000000000000000  0.7499999999999999
  0.7499999999999999  0.0000000000000000  0.7499999999999999
  0.2500000000000000  0.4999999999999999  0.7499999999999999
  0.7499999999999999  0.4999999999999999  0.7499999999999999
  0.0000000000000000  0.2500000000000000  0.2500000000000000
  0.4999999999999999  0.2500000000000000  0.2500000000000000
  0.0000000000000000  0.7499999999999999  0.2500000000000000
  0.4999999999999999  0.7499999999999999  0.2500000000000000
  0.0000000000000000  0.2500000000000000  0.7499999999999999
  0.4999999999999999  0.2500000000000000  0.7499999999999999
  0.0000000000000000  0.7499999999999999  0.7499999999999999
  0.4999999999999999  0.7499999999999999  0.7499999999999999
