Ag
   1.0
     7.9933915807035669    0.0000000000000000    0.0000000000000000
     0.0000000000000000    7.9933915807035669    0.0000000000000000
     0.0000000000000000    0.0000000000000000    7.9933915807035669
  32
Direct
  0.0012510334191735  0.0000000000000000  0.0000000000000000
  0.4999999999999999  0.0000000000000000  0.0000000000000000
  0.0000000000000000  0.4999999999999999  0.0000000000000000
  0.4999999999999999  0.4999999999999999  0.0000000000000000
  0.0000000000000000  0.0000000000000000  0.4999999999999999
  0.4999999999999999  0.0000000000000000  0.4999999999999999
  0.0000000000000000  0.4999999999999999  0.4999999999999999
  0.4999999999999999  0.4999999999999999  0.4999999999999999
  0.2500000000000000  0.2500000000000000  0.0000000000000000
  0.7500000000000000  0.2500000000000000  0.0000000000000000
  0.2500000000000000  0.7500000000000000  0.0000000000000000
  0.7500000000000000  0.7500000000000000  0.0000000000000000
  0.2500000000000000  0.2500000000000000  0.4999999999999999
  0.7500000000000000  0.2500000000000000  0.4999999999999999
  0.2500000000000000  0.7500000000000000  0.4999999999999999
  0.7500000000000000  0.7500000000000000  0.4999999999999999
  0.2500000000000000  0.0000000000000000  0.2500000000000000
  0.7500000000000000  0.0000000000000000  0.2500000000000000
  0.2500000000000000  0.4999999999999999  0.2500000000000000
  0.7500000000000000  0.4999999999999999  0.2500000000000000
  0.2500000000000000  0.0000000000000000  0.7500000000000000
  0.7500000000000000  0.0000000000000000  0.7500000000000000
  0.2500000000000000  0.4999999999999999  0.7500000000000000
  0.7500000000000000  0.4999999999999999  0.7500000000000000
  0.0000000000000000  0.2500000000000000  0.2500000000000000
  0.4999999999999999  0.2500000000000000  0.2500000000000000
  0.0000000000000000  0.7500000000000000  0.2500000000000000
  0.4999999999999999  0.7500000000000000  0.2500000000000000
  0.0000000000000000  0.2500000000000000  0.7500000000000000
  0.4999999999999999  0.2500000000000000  0.7500000000000000
  0.0000000000000000  0.7500000000000000  0.7500000000000000
  0.4999999999999999  0.7500000000000000  0.7500000000000000
