Cu
   1.0
     7.3455599397007649    0.0000000000000000    0.0000000000000000
     0.0000000000000000    7.3455599397007649    0.0000000000000000
     0.0000000000000000    0.0000000000000000    7.3455599397007649
  32
Direct
  0.0013613666054173  0.0000000000000000  0.0000000000000000
  0.4999999999999999  0.0000000000000000  0.0000000000000000
  0.0000000000000000  0.4999999999999999  0.0000000000000000
  0.4999999999999999  0.4999999999999999  0.0000000000000000
  0.0000000000000000  0.0000000000000000  0.4999999999999999
  0.4999999999999999  0.0000000000000000  0.4999999999999999
  0.0000000000000000  0.4999999999999999  0.4999999999999999
  0.4999999999999999  0.4999999999999999  0.4999999999999999
  0.2500000000000000  0.2500000000000000  0.0000000000000000
  0.7500000000000000  0.2500000000000000  0.0000000000000000
  0.2500000000000000  0.7500000000000000  0.0000000000000000
  0.7500000000000000  0.7500000000000000  0.0000000000000000
  0.2500000000000000  0.2500000000000000  0.4999999999999999
  0.7500000000000000  0.2500000000000000  0.4999999999999999
  0.2500000000000000  0.7500000000000000  0.4999999999999999
  0.7500000000000000  0.7500000000000000  0.4999999999999999
  0.2500000000000000  0.0000000000000000  0.2500000000000000
  0.7500000000000000  0.0000000000000000  0.2500000000000000
  0.2500000000000000  0.4999999999999999  0.2500000000000000
  0.7500000000000000  0.4999999999999999  0.2500000000000000
  0.2500000000000000  0.0000000000000000  0.7500000000000000
  0.7500000000000000  0.0000000000000000  0.7500000000000000
  0.2500000000000000  0.4999999999999999  0.7500000000000000
  0.7500000000000000  0.4999999999999999  0.7500000000000000
  0.0000000000000000  0.2500000000000000  0.2500000000000000
  0.4999999999999999  0.2500000000000000  0.2500000000000000
  0.0000000000000000  0.7500000000000000  0.2500000000000000
  0.4999999999999999  0.7500000000000000  0.2500000000000000
  0.0000000000000000  0.2500000000000000  0.7500000000000000
  0.4999999999999999  0.2500000000000000  0.7500000000000000
  0.0000000000000000  0.7500000000000000  0.7500000000000000
  0.4999999999999999  0.7500000000000000  0.7500000000000000
