Al
   1.0
     8.0766181946000000    0.0000000000000000    0.0000000000000000
     0.0000000000000000    8.0766181946000000    0.0000000000000000
     0.0000000000000000    0.0000000000000000    8.0766181946000000
  32
Direct
  0.2512381419746554  0.2500000000000000  0.0000000000000000
  0.7499999999999999  0.2500000000000000  0.0000000000000000
  0.2500000000000000  0.7499999999999999  0.0000000000000000
  0.7499999999999999  0.7499999999999999  0.0000000000000000
  0.2500000000000000  0.2500000000000000  0.5000000000000000
  0.7499999999999999  0.2500000000000000  0.5000000000000000
  0.2500000000000000  0.7499999999999999  0.5000000000000000
  0.7499999999999999  0.7499999999999999  0.5000000000000000
  0.2500000000000000  0.0000000000000000  0.2500000000000000
  0.7499999999999999  0.0000000000000000  0.2500000000000000
  0.2500000000000000  0.5000000000000000  0.2500000000000000
  0.7499999999999999  0.5000000000000000  0.2500000000000000
  0.2500000000000000  0.0000000000000000  0.7499999999999999
  0.7499999999999999  0.0000000000000000  0.7499999999999999
  0.2500000000000000  0.5000000000000000  0.7499999999999999
  0.7499999999999999  0.5000000000000000  0.7499999999999999
  0.0000000000000000  0.2500000000000000  0.2500000000000000
  0.5000000000000000  0.2500000000000000  0.2500000000000000
  0.0000000000000000  0.7499999999999999  0.2500000000000000
  0.5000000000000000  0.7499999999999999  0.2500000000000000
  0.0000000000000000  0.2500000000000000  0.7499999999999999
  0.5000000000000000  0.2500000000000000  0.7499999999999999
  0.0000000000000000  0.7499999999999999  0.7499999999999999
  0.5000000000000000  0.7499999999999999  0.7499999999999999
  0.0000000000000000  0.0000000000000000  0.0000000000000000
  0.5000000000000000  0.0000000000000000  0.0000000000000000
  0.0000000000000000  0.5000000000000000  0.0000000000000000
  0.5000000000000000  0.5000000000000000  0.0000000000000000
  0.0000000000000000  0.0000000000000000  0.5000000000000000
  0.5000000000000000  0.0000000000000000  0.5000000000000000
  0.0000000000000000  0.5000000000000000  0.5000000000000000
  0.5000000000000000  0.5000000000000000  0.5000000000000000
