Ag
   1.0
     8.3264495632328828    0.0000000000000000    0.0000000000000000
     0.0000000000000000    8.3264495632328828    0.0000000000000000
     0.0000000000000000    0.0000000000000000    8.3264495632328828
  32
Direct
  0.0012009920824065  0.0000000000000000  0.0000000000000000
  0.5000000000000000  0.0000000000000000  0.0000000000000000
  0.0000000000000000  0.5000000000000000  0.0000000000000000
  0.5000000000000000  0.5000000000000000  0.0000000000000000
  0.0000000000000000  0.0000000000000000  0.5000000000000000
  0.5000000000000000  0.0000000000000000  0.5000000000000000
  0.0000000000000000  0.5000000000000000  0.5000000000000000
  0.5000000000000000  0.5000000000000000  0.5000000000000000
  0.2500000000000000  0.2500000000000000  0.0000000000000000
  0.7499999999999999  0.2500000000000000  0.0000000000000000
  0.2500000000000000  0.7499999999999999  0.0000000000000000
  0.7499999999999999  0.7499999999999999  0.0000000000000000
  0.2500000000000000  0.2500000000000000  0.5000000000000000
  0.7499999999999999  0.2500000000000000  0.5000000000000000
  0.2500000000000000  0.7499999999999999  0.5000000000000000
  0.7499999999999999  0.7499999999999999  0.5000000000000000
  0.2500000000000000  0.0000000000000000  0.2500000000000000
  0.7499999999999999  0.0000000000000000  0.2500000000000000
  0.2500000000000000  0.5000000000000000  0.2500000000000000
  0.7499999999999999  0.5000000000000000  0.2500000000000000
  0.2500000000000000  0.0000000000000000  0.7499999999999999
  0.7499999999999999  0.0000000000000000  0.7499999999999999
  0.2500000000000000  0.5000000000000000  0.7499999999999999
  0.7499999999999999  0.5000000000000000  0.7499999999999999
  0.0000000000000000  0.2500000000000000  0.2500000000000000
  0.5000000000000000  0.2500000000000000  0.2500000000000000
  0.0000000000000000  0.7499999999999999  0.2500000000000000
  0.5000000000000000  0.7499999999999999  0.2500000000000000
  0.0000000000000000  0.2500000000000000  0.7499999999999999
  0.5000000000000000  0.2500000000000000  0.7499999999999999
  0.0000000000000000  0.7499999999999999  0.7499999999999999
  0.5000000000000000  0.7499999999999999  0.7499999999999999
