Ti                                      
   1.00000000000000     
     8.8206670999080785    0.0247654401816957    0.0000000000000000
    -4.3888858705323477    7.6513046101281406    0.0000000000000000
     0.0000000000000000    0.0000000000000000    9.2074744652904261
  36
Direct
  0.1099591289168345  0.2225899386137442  0.1242157341972501
  0.4440767280529201  0.2225899386137442  0.1250000000000000
  0.7774100613862558  0.2225899386137442  0.1250000000000000
  0.1107433947195844  0.5559232719470799  0.1250000000000000
  0.4440767280529201  0.5559232719470799  0.1250000000000000
  0.7774100613862558  0.5559232719470799  0.1250000000000000
  0.1107433947195844  0.8892566052804156  0.1250000000000000
  0.4440767280529201  0.8892566052804156  0.1250000000000000
  0.7774100613862558  0.8892566052804156  0.1250000000000000
  0.1107433947195844  0.2225899386137442  0.6250000000000000
  0.4440767280529201  0.2225899386137442  0.6250000000000000
  0.7774100613862558  0.2225899386137442  0.6250000000000000
  0.1107433947195844  0.5559232719470799  0.6250000000000000
  0.4440767280529201  0.5559232719470799  0.6250000000000000
  0.7774100613862558  0.5559232719470799  0.6250000000000000
  0.1107433947195844  0.8892566052804156  0.6250000000000000
  0.4440767280529201  0.8892566052804156  0.6250000000000000
  0.7774100613862558  0.8892566052804156  0.6250000000000000
  0.2225899386137442  0.1107433947195844  0.3750000000000000
  0.5559232719470799  0.1107433947195844  0.3750000000000000
  0.8892566052804156  0.1107433947195844  0.3750000000000000
  0.2225899386137442  0.4440767280529201  0.3750000000000000
  0.5559232719470799  0.4440767280529201  0.3750000000000000
  0.8892566052804156  0.4440767280529201  0.3750000000000000
  0.2225899386137442  0.7774100613862558  0.3750000000000000
  0.5559232719470799  0.7774100613862558  0.3750000000000000
  0.8892566052804156  0.7774100613862558  0.3750000000000000
  0.2225899386137442  0.1107433947195844  0.8750000000000000
  0.5559232719470799  0.1107433947195844  0.8750000000000000
  0.8892566052804156  0.1107433947195844  0.8750000000000000
  0.2225899386137442  0.4440767280529201  0.8750000000000000
  0.5559232719470799  0.4440767280529201  0.8750000000000000
  0.8892566052804156  0.4440767280529201  0.8750000000000000
  0.2225899386137442  0.7774100613862558  0.8750000000000000
  0.5559232719470799  0.7774100613862558  0.8750000000000000
  0.8892566052804156  0.7774100613862558  0.8750000000000000
 
  0.00000000E+00  0.00000000E+00  0.00000000E+00
  0.00000000E+00  0.00000000E+00  0.00000000E+00
  0.00000000E+00  0.00000000E+00  0.00000000E+00
  0.00000000E+00  0.00000000E+00  0.00000000E+00
  0.00000000E+00  0.00000000E+00  0.00000000E+00
  0.00000000E+00  0.00000000E+00  0.00000000E+00
  0.00000000E+00  0.00000000E+00  0.00000000E+00
  0.00000000E+00  0.00000000E+00  0.00000000E+00
  0.00000000E+00  0.00000000E+00  0.00000000E+00
  0.00000000E+00  0.00000000E+00  0.00000000E+00
  0.00000000E+00  0.00000000E+00  0.00000000E+00
  0.00000000E+00  0.00000000E+00  0.00000000E+00
  0.00000000E+00  0.00000000E+00  0.00000000E+00
  0.00000000E+00  0.00000000E+00  0.00000000E+00
  0.00000000E+00  0.00000000E+00  0.00000000E+00
  0.00000000E+00  0.00000000E+00  0.00000000E+00
  0.00000000E+00  0.00000000E+00  0.00000000E+00
  0.00000000E+00  0.00000000E+00  0.00000000E+00
  0.00000000E+00  0.00000000E+00  0.00000000E+00
  0.00000000E+00  0.00000000E+00  0.00000000E+00
  0.00000000E+00  0.00000000E+00  0.00000000E+00
  0.00000000E+00  0.00000000E+00  0.00000000E+00
  0.00000000E+00  0.00000000E+00  0.00000000E+00
  0.00000000E+00  0.00000000E+00  0.00000000E+00
  0.00000000E+00  0.00000000E+00  0.00000000E+00
  0.00000000E+00  0.00000000E+00  0.00000000E+00
  0.00000000E+00  0.00000000E+00  0.00000000E+00
  0.00000000E+00  0.00000000E+00  0.00000000E+00
  0.00000000E+00  0.00000000E+00  0.00000000E+00
  0.00000000E+00  0.00000000E+00  0.00000000E+00
  0.00000000E+00  0.00000000E+00  0.00000000E+00
  0.00000000E+00  0.00000000E+00  0.00000000E+00
  0.00000000E+00  0.00000000E+00  0.00000000E+00
  0.00000000E+00  0.00000000E+00  0.00000000E+00
  0.00000000E+00  0.00000000E+00  0.00000000E+00
  0.00000000E+00  0.00000000E+00  0.00000000E+00
