Au
   1.0
     8.0953326904908440    0.0000000000000000    0.0000000000000000
     0.0000000000000000    8.0953326904908440    0.0000000000000000
     0.0000000000000000    0.0000000000000000    8.0953326904908440
  32
Direct
  0.0012352796830384  0.0000000000000000  0.0000000000000000
  0.5000000000000000  0.0000000000000000  0.0000000000000000
  0.0000000000000000  0.5000000000000000  0.0000000000000000
  0.5000000000000000  0.5000000000000000  0.0000000000000000
  0.0000000000000000  0.0000000000000000  0.5000000000000000
  0.5000000000000000  0.0000000000000000  0.5000000000000000
  0.0000000000000000  0.5000000000000000  0.5000000000000000
  0.5000000000000000  0.5000000000000000  0.5000000000000000
  0.2500000000000000  0.2500000000000000  0.0000000000000000
  0.7500000000000001  0.2500000000000000  0.0000000000000000
  0.2500000000000000  0.7500000000000001  0.0000000000000000
  0.7500000000000001  0.7500000000000001  0.0000000000000000
  0.2500000000000000  0.2500000000000000  0.5000000000000000
  0.7500000000000001  0.2500000000000000  0.5000000000000000
  0.2500000000000000  0.7500000000000001  0.5000000000000000
  0.7500000000000001  0.7500000000000001  0.5000000000000000
  0.2500000000000000  0.0000000000000000  0.2500000000000000
  0.7500000000000001  0.0000000000000000  0.2500000000000000
  0.2500000000000000  0.5000000000000000  0.2500000000000000
  0.7500000000000001  0.5000000000000000  0.2500000000000000
  0.2500000000000000  0.0000000000000000  0.7500000000000001
  0.7500000000000001  0.0000000000000000  0.7500000000000001
  0.2500000000000000  0.5000000000000000  0.7500000000000001
  0.7500000000000001  0.5000000000000000  0.7500000000000001
  0.0000000000000000  0.2500000000000000  0.2500000000000000
  0.5000000000000000  0.2500000000000000  0.2500000000000000
  0.0000000000000000  0.7500000000000001  0.2500000000000000
  0.5000000000000000  0.7500000000000001  0.2500000000000000
  0.0000000000000000  0.2500000000000000  0.7500000000000001
  0.5000000000000000  0.2500000000000000  0.7500000000000001
  0.0000000000000000  0.7500000000000001  0.7500000000000001
  0.5000000000000000  0.7500000000000001  0.7500000000000001
