Ag
   1.0
     8.0766560763358957    0.0000000000000000    0.0000000000000000
     0.0000000000000000    8.0766560763358957    0.0000000000000000
     0.0000000000000000    0.0000000000000000    8.0766560763358957
  32
Direct
  0.0012381361674294  0.0000000000000000  0.0000000000000000
  0.5000000000000000  0.0000000000000000  0.0000000000000000
  0.0000000000000000  0.5000000000000000  0.0000000000000000
  0.5000000000000000  0.5000000000000000  0.0000000000000000
  0.0000000000000000  0.0000000000000000  0.5000000000000000
  0.5000000000000000  0.0000000000000000  0.5000000000000000
  0.0000000000000000  0.5000000000000000  0.5000000000000000
  0.5000000000000000  0.5000000000000000  0.5000000000000000
  0.2500000000000000  0.2500000000000000  0.0000000000000000
  0.7500000000000001  0.2500000000000000  0.0000000000000000
  0.2500000000000000  0.7500000000000001  0.0000000000000000
  0.7500000000000001  0.7500000000000001  0.0000000000000000
  0.2500000000000000  0.2500000000000000  0.5000000000000000
  0.7500000000000001  0.2500000000000000  0.5000000000000000
  0.2500000000000000  0.7500000000000001  0.5000000000000000
  0.7500000000000001  0.7500000000000001  0.5000000000000000
  0.2500000000000000  0.0000000000000000  0.2500000000000000
  0.7500000000000001  0.0000000000000000  0.2500000000000000
  0.2500000000000000  0.5000000000000000  0.2500000000000000
  0.7500000000000001  0.5000000000000000  0.2500000000000000
  0.2500000000000000  0.0000000000000000  0.7500000000000001
  0.7500000000000001  0.0000000000000000  0.7500000000000001
  0.2500000000000000  0.5000000000000000  0.7500000000000001
  0.7500000000000001  0.5000000000000000  0.7500000000000001
  0.0000000000000000  0.2500000000000000  0.2500000000000000
  0.5000000000000000  0.2500000000000000  0.2500000000000000
  0.0000000000000000  0.7500000000000001  0.2500000000000000
  0.5000000000000000  0.7500000000000001  0.2500000000000000
  0.0000000000000000  0.2500000000000000  0.7500000000000001
  0.5000000000000000  0.2500000000000000  0.7500000000000001
  0.0000000000000000  0.7500000000000001  0.7500000000000001
  0.5000000000000000  0.7500000000000001  0.7500000000000001
