Al
   1.0
     7.6706798099999993    0.0000000000000000    0.0000000000000000
     0.0000000000000000    7.6706798099999993    0.0000000000000000
     0.0000000000000000    0.0000000000000000    7.6706798099999993
  32
Direct
  0.2513036654178895  0.2500000000000000  0.0000000000000000
  0.7500000000000001  0.2500000000000000  0.0000000000000000
  0.2500000000000000  0.7500000000000001  0.0000000000000000
  0.7500000000000001  0.7500000000000001  0.0000000000000000
  0.2500000000000000  0.2500000000000000  0.5000000000000000
  0.7500000000000001  0.2500000000000000  0.5000000000000000
  0.2500000000000000  0.7500000000000001  0.5000000000000000
  0.7500000000000001  0.7500000000000001  0.5000000000000000
  0.2500000000000000  0.0000000000000000  0.2500000000000000
  0.7500000000000001  0.0000000000000000  0.2500000000000000
  0.2500000000000000  0.5000000000000000  0.2500000000000000
  0.7500000000000001  0.5000000000000000  0.2500000000000000
  0.2500000000000000  0.0000000000000000  0.7500000000000001
  0.7500000000000001  0.0000000000000000  0.7500000000000001
  0.2500000000000000  0.5000000000000000  0.7500000000000001
  0.7500000000000001  0.5000000000000000  0.7500000000000001
  0.0000000000000000  0.2500000000000000  0.2500000000000000
  0.5000000000000000  0.2500000000000000  0.2500000000000000
  0.0000000000000000  0.7500000000000001  0.2500000000000000
  0.5000000000000000  0.7500000000000001  0.2500000000000000
  0.0000000000000000  0.2500000000000000  0.7500000000000001
  0.5000000000000000  0.2500000000000000  0.7500000000000001
  0.0000000000000000  0.7500000000000001  0.7500000000000001
  0.5000000000000000  0.7500000000000001  0.7500000000000001
  0.0000000000000000  0.0000000000000000  0.0000000000000000
  0.5000000000000000  0.0000000000000000  0.0000000000000000
  0.0000000000000000  0.5000000000000000  0.0000000000000000
  0.5000000000000000  0.5000000000000000  0.0000000000000000
  0.0000000000000000  0.0000000000000000  0.5000000000000000
  0.5000000000000000  0.0000000000000000  0.5000000000000000
  0.0000000000000000  0.5000000000000000  0.5000000000000000
  0.5000000000000000  0.5000000000000000  0.5000000000000000
