Tihcp
1.0
2.95000000 0.00000000 0.00000000
0.00000000 5.10000000 0.00000000
0.00000000 0.00000000 4.68330000
4
Direct
0.25000000 0.08333300 0.25000
0.25000000 0.41666600 0.75000
0.75000000 0.58333400 0.25000
0.75000000 0.91667000 0.75000
