Ti
   1.0
     5.8804447332720526    0.0165102934544638    0.0000000000000000
    -2.9259239136882318    5.1008697400854270    0.0000000000000000
     0.0000000000000000    0.0000000000000000    4.0000000000000000
  16
Direct
  0.1647090089270137  0.3338849079206199  0.1235939168476335
  0.6661150920793801  0.3338849079206198  0.1250000000000000
  0.1661150920793802  0.8338849079206200  0.1250000000000000
  0.6661150920793801  0.8338849079206200  0.1250000000000000
  0.1661150920793801  0.3338849079206198  0.6250000000000000
  0.6661150920793801  0.3338849079206198  0.6250000000000000
  0.1661150920793802  0.8338849079206200  0.6250000000000000
  0.6661150920793801  0.8338849079206200  0.6250000000000000
  0.3338849079206199  0.1661150920793802  0.3750000000000000
  0.8338849079206198  0.1661150920793802  0.3750000000000000
  0.3338849079206198  0.6661150920793801  0.3750000000000000
  0.8338849079206198  0.6661150920793800  0.3750000000000000
  0.3338849079206199  0.1661150920793802  0.8750000000000000
  0.8338849079206198  0.1661150920793802  0.8750000000000000
  0.3338849079206198  0.6661150920793801  0.8750000000000000
  0.8338849079206198  0.6661150920793800  0.8750000000000000
